NAME : 9.78316.tour
COMMENT : Length = 78316
COMMENT : Found by LKH-3 [Keld Helsgaun] Thu Jun 19 18:16:12 2025
TYPE : TOUR
DIMENSION : 100
TOUR_SECTION
1
24
17
41
54
12
72
69
58
40
56
51
49
8
31
5
10
100
85
80
18
62
9
79
46
32
19
73
4
57
66
25
35
99
39
3
38
59
70
21
81
50
65
55
36
44
7
37
11
93
97
71
86
53
22
13
15
87
83
78
76
26
42
52
28
95
63
89
91
77
82
14
84
67
60
92
94
90
64
23
61
34
48
47
30
75
45
33
68
98
27
16
88
96
2
74
6
20
43
29
-1
EOF
